100 8
296 375
451 607
497 75
181 370
560 213
590 823
280 330
659 846
368 246
349 908
888 563
733 860
805 844
513 666
370 601
220 745
232 306
860 590
970 527
718 835
278 774
582 812
853 692
527 219
161 685
497 269
449 549
652 913
446 59
282 342
153 434
339 753
202 799
243 340
961 992
533 763
897 548
807 851
432 860
458 846
387 688
817 584
275 733
263 811
475 171
464 851
639 806
535 845
567 789
354 213
867 890
823 803
806 600
477 777
285 278
616 796
290 713
564 539
613 736
841 896
454 775
585 213
560 408
305 894
960 585
660 922
812 618
455 678
434 187
551 685
380 57
401 957
442 769
819 600
575 406
422 123
327 435
534 692
556 857
522 338
236 502
465 233
343 189
237 695
971 907
593 178
888 675
278 643
976 465
977 499
543 669
427 69
705 826
532 698
862 869
578 796
276 434
520 583
460 218
431 699
